c FILE: i160-013

c SOURCE: From steinlib

c DESCRIPTION: Steinlib instance with 160 nodes and 812 edges.

p edge 160 812
e 1 6
e 1 28
e 1 44
e 1 55
e 1 56
e 1 86
e 1 98
e 1 102
e 1 105
e 1 136
e 2 12
e 2 16
e 2 25
e 2 32
e 2 37
e 2 80
e 2 83
e 2 88
e 2 93
e 2 100
e 2 114
e 2 115
e 2 132
e 2 142
e 2 147
e 2 149
e 3 32
e 3 39
e 3 44
e 3 59
e 3 60
e 3 63
e 3 91
e 3 102
e 3 119
e 3 147
e 4 19
e 4 49
e 4 80
e 4 82
e 4 99
e 4 138
e 4 147
e 5 6
e 5 13
e 5 28
e 5 36
e 5 106
e 5 112
e 5 149
e 5 159
e 6 15
e 6 18
e 6 47
e 6 53
e 6 84
e 6 96
e 6 97
e 6 115
e 6 150
e 7 15
e 7 19
e 7 23
e 7 32
e 7 34
e 7 74
e 7 108
e 7 137
e 7 139
e 7 144
e 8 11
e 8 19
e 8 44
e 8 49
e 8 50
e 8 55
e 8 77
e 8 94
e 8 104
e 8 127
e 8 128
e 9 52
e 9 64
e 9 82
e 9 85
e 9 93
e 9 101
e 9 116
e 9 154
e 10 31
e 10 39
e 10 68
e 10 82
e 10 102
e 10 121
e 10 122
e 10 140
e 10 155
e 11 13
e 11 18
e 11 26
e 11 32
e 11 79
e 11 127
e 11 160
e 12 13
e 12 18
e 12 34
e 12 46
e 12 71
e 12 102
e 12 111
e 12 119
e 12 125
e 13 26
e 13 29
e 13 36
e 13 129
e 13 160
e 14 35
e 14 48
e 14 49
e 14 50
e 14 59
e 14 65
e 14 75
e 14 78
e 14 116
e 14 141
e 14 160
e 15 28
e 15 66
e 15 71
e 15 100
e 15 102
e 15 109
e 15 141
e 15 144
e 16 18
e 16 22
e 16 37
e 16 43
e 16 57
e 16 58
e 16 63
e 16 66
e 16 93
e 17 19
e 17 25
e 17 30
e 17 45
e 17 52
e 17 93
e 17 103
e 18 24
e 18 31
e 18 48
e 18 54
e 18 62
e 18 120
e 18 154
e 19 21
e 19 54
e 19 57
e 19 76
e 19 102
e 19 118
e 19 144
e 19 150
e 20 23
e 20 36
e 20 56
e 20 59
e 20 63
e 20 69
e 20 73
e 20 88
e 20 96
e 20 114
e 20 115
e 20 133
e 20 141
e 21 41
e 21 66
e 21 69
e 21 112
e 21 115
e 21 117
e 21 133
e 21 140
e 21 145
e 21 157
e 22 32
e 22 53
e 22 54
e 22 62
e 22 66
e 22 130
e 22 144
e 23 26
e 23 38
e 23 40
e 23 42
e 23 48
e 23 57
e 23 95
e 23 122
e 23 124
e 24 55
e 24 110
e 24 113
e 24 152
e 24 156
e 25 36
e 25 49
e 25 52
e 25 57
e 25 62
e 25 65
e 25 96
e 25 102
e 25 129
e 25 131
e 25 144
e 25 145
e 26 48
e 26 50
e 26 65
e 26 70
e 26 73
e 26 82
e 26 97
e 26 98
e 26 102
e 26 104
e 27 29
e 27 31
e 27 43
e 27 46
e 27 72
e 27 83
e 27 84
e 27 157
e 28 30
e 28 42
e 28 44
e 28 56
e 28 57
e 28 81
e 28 89
e 28 90
e 28 119
e 28 127
e 28 145
e 29 30
e 29 39
e 29 49
e 29 64
e 29 81
e 29 85
e 29 99
e 29 113
e 29 117
e 29 127
e 29 156
e 30 40
e 30 43
e 30 55
e 30 95
e 30 98
e 30 115
e 30 125
e 30 126
e 30 141
e 31 46
e 31 51
e 31 78
e 31 91
e 31 114
e 31 123
e 31 143
e 32 84
e 32 85
e 32 110
e 33 75
e 33 96
e 33 102
e 33 114
e 33 119
e 33 127
e 34 62
e 34 103
e 34 107
e 34 120
e 35 68
e 35 73
e 35 93
e 35 130
e 35 131
e 35 155
e 36 61
e 36 75
e 36 94
e 36 99
e 36 115
e 36 131
e 37 55
e 37 57
e 37 61
e 37 62
e 37 134
e 37 139
e 38 39
e 38 44
e 38 53
e 38 63
e 38 88
e 38 109
e 38 121
e 39 59
e 39 63
e 39 76
e 39 80
e 39 92
e 39 105
e 39 119
e 39 130
e 39 135
e 39 140
e 39 156
e 40 43
e 40 44
e 40 47
e 40 52
e 40 60
e 40 64
e 40 109
e 40 118
e 40 119
e 40 132
e 40 151
e 40 152
e 40 153
e 40 156
e 41 57
e 41 59
e 41 63
e 41 78
e 41 95
e 41 112
e 41 138
e 41 159
e 42 53
e 42 79
e 42 86
e 42 97
e 42 109
e 42 125
e 42 133
e 42 138
e 42 141
e 43 68
e 43 106
e 43 120
e 43 123
e 43 133
e 43 134
e 43 152
e 43 160
e 44 48
e 44 50
e 44 65
e 44 81
e 44 87
e 44 159
e 45 50
e 45 63
e 45 66
e 45 75
e 45 77
e 45 110
e 45 140
e 45 148
e 46 56
e 46 103
e 46 114
e 47 81
e 47 96
e 47 98
e 47 101
e 47 102
e 47 117
e 47 120
e 47 133
e 47 134
e 47 139
e 47 156
e 48 54
e 48 109
e 48 112
e 48 134
e 48 143
e 49 53
e 49 58
e 49 59
e 49 69
e 49 84
e 49 91
e 49 99
e 49 105
e 49 110
e 49 134
e 49 142
e 49 149
e 49 155
e 49 159
e 50 51
e 50 58
e 50 91
e 50 96
e 51 52
e 51 63
e 51 97
e 51 99
e 51 113
e 51 120
e 51 125
e 51 137
e 51 156
e 52 53
e 52 54
e 52 60
e 52 80
e 52 117
e 52 128
e 53 57
e 53 58
e 53 85
e 53 141
e 53 158
e 53 159
e 54 113
e 54 116
e 54 129
e 54 130
e 54 134
e 54 138
e 54 148
e 54 159
e 55 71
e 55 81
e 55 88
e 55 91
e 55 92
e 55 106
e 55 119
e 55 141
e 56 57
e 56 92
e 56 101
e 56 129
e 56 132
e 56 137
e 56 144
e 57 64
e 57 69
e 57 72
e 57 80
e 57 101
e 57 108
e 57 115
e 57 145
e 57 149
e 57 157
e 58 61
e 58 65
e 58 67
e 58 95
e 58 145
e 59 68
e 59 81
e 59 108
e 59 125
e 59 146
e 59 156
e 60 72
e 60 76
e 60 87
e 60 91
e 60 112
e 60 121
e 60 131
e 60 138
e 60 141
e 61 131
e 61 152
e 62 68
e 62 87
e 62 88
e 62 94
e 62 117
e 62 132
e 62 135
e 63 89
e 63 103
e 63 106
e 63 120
e 63 150
e 64 69
e 64 105
e 64 150
e 65 91
e 65 115
e 65 123
e 65 125
e 65 146
e 65 150
e 66 75
e 66 81
e 66 85
e 66 87
e 66 114
e 66 149
e 67 97
e 67 108
e 67 110
e 67 124
e 67 151
e 68 96
e 68 101
e 68 117
e 68 155
e 69 83
e 69 87
e 69 118
e 69 140
e 69 141
e 69 148
e 69 159
e 70 77
e 70 82
e 70 116
e 70 129
e 70 147
e 71 76
e 71 110
e 71 113
e 71 125
e 71 141
e 71 143
e 71 145
e 71 159
e 72 109
e 72 130
e 72 151
e 73 74
e 73 75
e 73 81
e 73 91
e 73 92
e 73 116
e 73 123
e 73 130
e 73 140
e 73 153
e 74 82
e 74 87
e 74 112
e 74 123
e 74 127
e 74 133
e 74 151
e 74 153
e 75 77
e 75 80
e 75 89
e 75 118
e 76 79
e 76 97
e 76 105
e 76 123
e 76 125
e 76 140
e 77 87
e 77 95
e 77 111
e 77 117
e 77 129
e 77 131
e 77 146
e 77 157
e 78 100
e 78 106
e 78 122
e 78 123
e 79 92
e 79 101
e 79 109
e 79 127
e 79 140
e 80 106
e 80 108
e 80 112
e 80 113
e 80 145
e 80 157
e 81 104
e 81 107
e 81 134
e 81 137
e 82 100
e 82 102
e 82 113
e 82 117
e 82 145
e 82 151
e 83 92
e 83 93
e 83 108
e 83 121
e 83 127
e 84 94
e 84 102
e 84 112
e 84 116
e 84 120
e 84 123
e 84 126
e 84 145
e 84 153
e 85 94
e 85 135
e 86 95
e 86 100
e 86 108
e 86 109
e 86 143
e 86 157
e 87 92
e 87 97
e 87 98
e 87 103
e 87 107
e 87 118
e 87 125
e 87 157
e 88 97
e 88 105
e 88 117
e 88 148
e 88 157
e 89 92
e 89 102
e 89 104
e 89 106
e 89 114
e 89 116
e 89 131
e 90 95
e 90 125
e 90 135
e 90 148
e 91 101
e 91 119
e 91 160
e 92 127
e 92 133
e 92 145
e 93 101
e 93 111
e 93 120
e 93 123
e 93 128
e 93 147
e 93 148
e 94 109
e 94 127
e 94 139
e 94 160
e 95 114
e 95 121
e 95 126
e 95 136
e 95 153
e 96 97
e 96 111
e 96 121
e 96 129
e 97 119
e 97 134
e 97 144
e 98 118
e 99 146
e 99 149
e 100 107
e 100 114
e 100 116
e 100 142
e 101 118
e 101 126
e 102 112
e 102 116
e 102 132
e 102 139
e 102 152
e 102 154
e 103 112
e 103 120
e 103 131
e 104 112
e 104 117
e 104 122
e 104 123
e 104 137
e 104 153
e 105 114
e 105 115
e 105 124
e 105 129
e 105 135
e 105 149
e 106 108
e 106 120
e 106 144
e 106 155
e 107 117
e 107 122
e 107 150
e 107 155
e 108 139
e 108 155
e 108 159
e 109 160
e 110 119
e 111 124
e 111 129
e 111 133
e 111 159
e 112 144
e 112 149
e 113 136
e 113 140
e 113 159
e 114 134
e 115 122
e 115 125
e 115 143
e 115 153
e 116 132
e 117 147
e 117 154
e 117 158
e 118 123
e 118 137
e 118 144
e 118 150
e 118 156
e 119 122
e 119 134
e 120 125
e 120 126
e 120 146
e 120 147
e 121 127
e 121 133
e 121 137
e 121 154
e 122 138
e 122 140
e 122 145
e 123 130
e 124 125
e 124 134
e 124 135
e 124 142
e 125 131
e 125 139
e 125 160
e 126 137
e 126 142
e 126 159
e 127 133
e 127 134
e 127 136
e 128 129
e 129 131
e 129 153
e 131 140
e 131 141
e 132 143
e 132 153
e 132 154
e 133 140
e 133 159
e 135 137
e 135 142
e 135 158
e 136 141
e 136 148
e 136 157
e 137 147
e 141 151
e 141 156
e 143 144
e 143 156
e 144 148
e 145 147
e 145 148
e 146 150
e 147 154
e 149 156
e 151 160
